\ENCODING=ISO-8859-1
\Problem name: 

Minimize
 obj1: y_0_1 + 2 y_0_2 + 3 y_0_3 + 4 y_0_4 + 5 y_0_5 + y_0_6 + 5.09902 y_0_7
       + 2 y_0_8 + 5.38516 y_0_9 + y_1_0 + y_1_2 + 2 y_1_3 + 3 y_1_4 + 4 y_1_5
       + 1.41421 y_1_6 + 4.12311 y_1_7 + 2.23607 y_1_8 + 4.47214 y_1_9
       + 2 y_2_0 + y_2_1 + y_2_3 + 2 y_2_4 + 3 y_2_5 + 2.23607 y_2_6
       + 3.16228 y_2_7 + 2.82843 y_2_8 + 3.60555 y_2_9 + 3 y_3_0 + 2 y_3_1
       + y_3_2 + y_3_4 + 2 y_3_5 + 3.16228 y_3_6 + 2.23607 y_3_7
       + 3.60555 y_3_8 + 2.82843 y_3_9 + 4 y_4_0 + 3 y_4_1 + 2 y_4_2 + y_4_3
       + y_4_5 + 4.12311 y_4_6 + 1.41421 y_4_7 + 4.47214 y_4_8 + 2.23607 y_4_9
       + 5 y_5_0 + 4 y_5_1 + 3 y_5_2 + 2 y_5_3 + y_5_4 + 5.09902 y_5_6 + y_5_7
       + 5.38516 y_5_8 + 2 y_5_9 + y_6_0 + 1.41421 y_6_1 + 2.23607 y_6_2
       + 3.16228 y_6_3 + 4.12311 y_6_4 + 5.09902 y_6_5 + 5 y_6_7 + y_6_8
       + 5.09902 y_6_9 + 5.09902 y_7_0 + 4.12311 y_7_1 + 3.16228 y_7_2
       + 2.23607 y_7_3 + 1.41421 y_7_4 + y_7_5 + 5 y_7_6 + 5.09902 y_7_8
       + y_7_9 + 2 y_8_0 + 2.23607 y_8_1 + 2.82843 y_8_2 + 3.60555 y_8_3
       + 4.47214 y_8_4 + 5.38516 y_8_5 + y_8_6 + 5.09902 y_8_7 + 5 y_8_9
       + 5.38516 y_9_0 + 4.47214 y_9_1 + 3.60555 y_9_2 + 2.82843 y_9_3
       + 2.23607 y_9_4 + 2 y_9_5 + 5.09902 y_9_6 + y_9_7 + 5 y_9_8
Subject To
 c1:   x_0_1 - x_1_2 - x_1_3 - x_1_4 - x_1_5 - x_1_6 - x_1_7 - x_1_8 - x_1_9
       + x_2_1 + x_3_1 + x_4_1 + x_5_1 + x_6_1 + x_7_1 + x_8_1 + x_9_1  = 1
 c2:   x_0_2 + x_1_2 - x_2_1 - x_2_3 - x_2_4 - x_2_5 - x_2_6 - x_2_7 - x_2_8
       - x_2_9 + x_3_2 + x_4_2 + x_5_2 + x_6_2 + x_7_2 + x_8_2 + x_9_2  = 1
 c3:   x_0_3 + x_1_3 + x_2_3 - x_3_1 - x_3_2 - x_3_4 - x_3_5 - x_3_6 - x_3_7
       - x_3_8 - x_3_9 + x_4_3 + x_5_3 + x_6_3 + x_7_3 + x_8_3 + x_9_3  = 1
 c4:   x_0_4 + x_1_4 + x_2_4 + x_3_4 - x_4_1 - x_4_2 - x_4_3 - x_4_5 - x_4_6
       - x_4_7 - x_4_8 - x_4_9 + x_5_4 + x_6_4 + x_7_4 + x_8_4 + x_9_4  = 1
 c5:   x_0_5 + x_1_5 + x_2_5 + x_3_5 + x_4_5 - x_5_1 - x_5_2 - x_5_3 - x_5_4
       - x_5_6 - x_5_7 - x_5_8 - x_5_9 + x_6_5 + x_7_5 + x_8_5 + x_9_5  = 1
 c6:   x_0_6 + x_1_6 + x_2_6 + x_3_6 + x_4_6 + x_5_6 - x_6_1 - x_6_2 - x_6_3
       - x_6_4 - x_6_5 - x_6_7 - x_6_8 - x_6_9 + x_7_6 + x_8_6 + x_9_6  = 1
 c7:   x_0_7 + x_1_7 + x_2_7 + x_3_7 + x_4_7 + x_5_7 + x_6_7 - x_7_1 - x_7_2
       - x_7_3 - x_7_4 - x_7_5 - x_7_6 - x_7_8 - x_7_9 + x_8_7 + x_9_7  = 1
 c8:   x_0_8 + x_1_8 + x_2_8 + x_3_8 + x_4_8 + x_5_8 + x_6_8 + x_7_8 - x_8_1
       - x_8_2 - x_8_3 - x_8_4 - x_8_5 - x_8_6 - x_8_7 - x_8_9 + x_9_8  = 1
 c9:   x_0_9 + x_1_9 + x_2_9 + x_3_9 + x_4_9 + x_5_9 + x_6_9 + x_7_9 + x_8_9
       - x_9_1 - x_9_2 - x_9_3 - x_9_4 - x_9_5 - x_9_6 - x_9_7 - x_9_8  = 1
 c10:  y_0_0 + y_0_1 + y_0_2 + y_0_3 + y_0_4 + y_0_5 + y_0_6 + y_0_7 + y_0_8
       + y_0_9  = 1
 c11:  y_1_0 + y_1_1 + y_1_2 + y_1_3 + y_1_4 + y_1_5 + y_1_6 + y_1_7 + y_1_8
       + y_1_9  = 1
 c12:  y_2_0 + y_2_1 + y_2_2 + y_2_3 + y_2_4 + y_2_5 + y_2_6 + y_2_7 + y_2_8
       + y_2_9  = 1
 c13:  y_3_0 + y_3_1 + y_3_2 + y_3_3 + y_3_4 + y_3_5 + y_3_6 + y_3_7 + y_3_8
       + y_3_9  = 1
 c14:  y_4_0 + y_4_1 + y_4_2 + y_4_3 + y_4_4 + y_4_5 + y_4_6 + y_4_7 + y_4_8
       + y_4_9  = 1
 c15:  y_5_0 + y_5_1 + y_5_2 + y_5_3 + y_5_4 + y_5_5 + y_5_6 + y_5_7 + y_5_8
       + y_5_9  = 1
 c16:  y_6_0 + y_6_1 + y_6_2 + y_6_3 + y_6_4 + y_6_5 + y_6_6 + y_6_7 + y_6_8
       + y_6_9  = 1
 c17:  y_7_0 + y_7_1 + y_7_2 + y_7_3 + y_7_4 + y_7_5 + y_7_6 + y_7_7 + y_7_8
       + y_7_9  = 1
 c18:  y_8_0 + y_8_1 + y_8_2 + y_8_3 + y_8_4 + y_8_5 + y_8_6 + y_8_7 + y_8_8
       + y_8_9  = 1
 c19:  y_9_0 + y_9_1 + y_9_2 + y_9_3 + y_9_4 + y_9_5 + y_9_6 + y_9_7 + y_9_8
       + y_9_9  = 1
 c20:  y_0_0 + y_1_0 + y_2_0 + y_3_0 + y_4_0 + y_5_0 + y_6_0 + y_7_0 + y_8_0
       + y_9_0  = 1
 c21:  y_0_1 + y_1_1 + y_2_1 + y_3_1 + y_4_1 + y_5_1 + y_6_1 + y_7_1 + y_8_1
       + y_9_1  = 1
 c22:  y_0_2 + y_1_2 + y_2_2 + y_3_2 + y_4_2 + y_5_2 + y_6_2 + y_7_2 + y_8_2
       + y_9_2  = 1
 c23:  y_0_3 + y_1_3 + y_2_3 + y_3_3 + y_4_3 + y_5_3 + y_6_3 + y_7_3 + y_8_3
       + y_9_3  = 1
 c24:  y_0_4 + y_1_4 + y_2_4 + y_3_4 + y_4_4 + y_5_4 + y_6_4 + y_7_4 + y_8_4
       + y_9_4  = 1
 c25:  y_0_5 + y_1_5 + y_2_5 + y_3_5 + y_4_5 + y_5_5 + y_6_5 + y_7_5 + y_8_5
       + y_9_5  = 1
 c26:  y_0_6 + y_1_6 + y_2_6 + y_3_6 + y_4_6 + y_5_6 + y_6_6 + y_7_6 + y_8_6
       + y_9_6  = 1
 c27:  y_0_7 + y_1_7 + y_2_7 + y_3_7 + y_4_7 + y_5_7 + y_6_7 + y_7_7 + y_8_7
       + y_9_7  = 1
 c28:  y_0_8 + y_1_8 + y_2_8 + y_3_8 + y_4_8 + y_5_8 + y_6_8 + y_7_8 + y_8_8
       + y_9_8  = 1
 c29:  y_0_9 + y_1_9 + y_2_9 + y_3_9 + y_4_9 + y_5_9 + y_6_9 + y_7_9 + y_8_9
       + y_9_9  = 1
 c30:  - 9 y_0_1 + x_0_1 <= 0
 c31:  - 9 y_0_2 + x_0_2 <= 0
 c32:  - 9 y_0_3 + x_0_3 <= 0
 c33:  - 9 y_0_4 + x_0_4 <= 0
 c34:  - 9 y_0_5 + x_0_5 <= 0
 c35:  - 9 y_0_6 + x_0_6 <= 0
 c36:  - 9 y_0_7 + x_0_7 <= 0
 c37:  - 9 y_0_8 + x_0_8 <= 0
 c38:  - 9 y_0_9 + x_0_9 <= 0
 c39:  - 9 y_1_1 + x_1_1 <= 0
 c40:  - 9 y_1_2 + x_1_2 <= 0
 c41:  - 9 y_1_3 + x_1_3 <= 0
 c42:  - 9 y_1_4 + x_1_4 <= 0
 c43:  - 9 y_1_5 + x_1_5 <= 0
 c44:  - 9 y_1_6 + x_1_6 <= 0
 c45:  - 9 y_1_7 + x_1_7 <= 0
 c46:  - 9 y_1_8 + x_1_8 <= 0
 c47:  - 9 y_1_9 + x_1_9 <= 0
 c48:  - 9 y_2_1 + x_2_1 <= 0
 c49:  - 9 y_2_2 + x_2_2 <= 0
 c50:  - 9 y_2_3 + x_2_3 <= 0
 c51:  - 9 y_2_4 + x_2_4 <= 0
 c52:  - 9 y_2_5 + x_2_5 <= 0
 c53:  - 9 y_2_6 + x_2_6 <= 0
 c54:  - 9 y_2_7 + x_2_7 <= 0
 c55:  - 9 y_2_8 + x_2_8 <= 0
 c56:  - 9 y_2_9 + x_2_9 <= 0
 c57:  - 9 y_3_1 + x_3_1 <= 0
 c58:  - 9 y_3_2 + x_3_2 <= 0
 c59:  - 9 y_3_3 + x_3_3 <= 0
 c60:  - 9 y_3_4 + x_3_4 <= 0
 c61:  - 9 y_3_5 + x_3_5 <= 0
 c62:  - 9 y_3_6 + x_3_6 <= 0
 c63:  - 9 y_3_7 + x_3_7 <= 0
 c64:  - 9 y_3_8 + x_3_8 <= 0
 c65:  - 9 y_3_9 + x_3_9 <= 0
 c66:  - 9 y_4_1 + x_4_1 <= 0
 c67:  - 9 y_4_2 + x_4_2 <= 0
 c68:  - 9 y_4_3 + x_4_3 <= 0
 c69:  - 9 y_4_4 + x_4_4 <= 0
 c70:  - 9 y_4_5 + x_4_5 <= 0
 c71:  - 9 y_4_6 + x_4_6 <= 0
 c72:  - 9 y_4_7 + x_4_7 <= 0
 c73:  - 9 y_4_8 + x_4_8 <= 0
 c74:  - 9 y_4_9 + x_4_9 <= 0
 c75:  - 9 y_5_1 + x_5_1 <= 0
 c76:  - 9 y_5_2 + x_5_2 <= 0
 c77:  - 9 y_5_3 + x_5_3 <= 0
 c78:  - 9 y_5_4 + x_5_4 <= 0
 c79:  - 9 y_5_5 + x_5_5 <= 0
 c80:  - 9 y_5_6 + x_5_6 <= 0
 c81:  - 9 y_5_7 + x_5_7 <= 0
 c82:  - 9 y_5_8 + x_5_8 <= 0
 c83:  - 9 y_5_9 + x_5_9 <= 0
 c84:  - 9 y_6_1 + x_6_1 <= 0
 c85:  - 9 y_6_2 + x_6_2 <= 0
 c86:  - 9 y_6_3 + x_6_3 <= 0
 c87:  - 9 y_6_4 + x_6_4 <= 0
 c88:  - 9 y_6_5 + x_6_5 <= 0
 c89:  - 9 y_6_6 + x_6_6 <= 0
 c90:  - 9 y_6_7 + x_6_7 <= 0
 c91:  - 9 y_6_8 + x_6_8 <= 0
 c92:  - 9 y_6_9 + x_6_9 <= 0
 c93:  - 9 y_7_1 + x_7_1 <= 0
 c94:  - 9 y_7_2 + x_7_2 <= 0
 c95:  - 9 y_7_3 + x_7_3 <= 0
 c96:  - 9 y_7_4 + x_7_4 <= 0
 c97:  - 9 y_7_5 + x_7_5 <= 0
 c98:  - 9 y_7_6 + x_7_6 <= 0
 c99:  - 9 y_7_7 + x_7_7 <= 0
 c100: - 9 y_7_8 + x_7_8 <= 0
 c101: - 9 y_7_9 + x_7_9 <= 0
 c102: - 9 y_8_1 + x_8_1 <= 0
 c103: - 9 y_8_2 + x_8_2 <= 0
 c104: - 9 y_8_3 + x_8_3 <= 0
 c105: - 9 y_8_4 + x_8_4 <= 0
 c106: - 9 y_8_5 + x_8_5 <= 0
 c107: - 9 y_8_6 + x_8_6 <= 0
 c108: - 9 y_8_7 + x_8_7 <= 0
 c109: - 9 y_8_8 + x_8_8 <= 0
 c110: - 9 y_8_9 + x_8_9 <= 0
 c111: - 9 y_9_1 + x_9_1 <= 0
 c112: - 9 y_9_2 + x_9_2 <= 0
 c113: - 9 y_9_3 + x_9_3 <= 0
 c114: - 9 y_9_4 + x_9_4 <= 0
 c115: - 9 y_9_5 + x_9_5 <= 0
 c116: - 9 y_9_6 + x_9_6 <= 0
 c117: - 9 y_9_7 + x_9_7 <= 0
 c118: - 9 y_9_8 + x_9_8 <= 0
 c119: - 9 y_9_9 + x_9_9 <= 0
Bounds
 0 <= y_0_0 <= 1
 0 <= y_0_1 <= 1
 0 <= y_0_2 <= 1
 0 <= y_0_3 <= 1
 0 <= y_0_4 <= 1
 0 <= y_0_5 <= 1
 0 <= y_0_6 <= 1
 0 <= y_0_7 <= 1
 0 <= y_0_8 <= 1
 0 <= y_0_9 <= 1
 0 <= y_1_0 <= 1
 0 <= y_1_1 <= 1
 0 <= y_1_2 <= 1
 0 <= y_1_3 <= 1
 0 <= y_1_4 <= 1
 0 <= y_1_5 <= 1
 0 <= y_1_6 <= 1
 0 <= y_1_7 <= 1
 0 <= y_1_8 <= 1
 0 <= y_1_9 <= 1
 0 <= y_2_0 <= 1
 0 <= y_2_1 <= 1
 0 <= y_2_2 <= 1
 0 <= y_2_3 <= 1
 0 <= y_2_4 <= 1
 0 <= y_2_5 <= 1
 0 <= y_2_6 <= 1
 0 <= y_2_7 <= 1
 0 <= y_2_8 <= 1
 0 <= y_2_9 <= 1
 0 <= y_3_0 <= 1
 0 <= y_3_1 <= 1
 0 <= y_3_2 <= 1
 0 <= y_3_3 <= 1
 0 <= y_3_4 <= 1
 0 <= y_3_5 <= 1
 0 <= y_3_6 <= 1
 0 <= y_3_7 <= 1
 0 <= y_3_8 <= 1
 0 <= y_3_9 <= 1
 0 <= y_4_0 <= 1
 0 <= y_4_1 <= 1
 0 <= y_4_2 <= 1
 0 <= y_4_3 <= 1
 0 <= y_4_4 <= 1
 0 <= y_4_5 <= 1
 0 <= y_4_6 <= 1
 0 <= y_4_7 <= 1
 0 <= y_4_8 <= 1
 0 <= y_4_9 <= 1
 0 <= y_5_0 <= 1
 0 <= y_5_1 <= 1
 0 <= y_5_2 <= 1
 0 <= y_5_3 <= 1
 0 <= y_5_4 <= 1
 0 <= y_5_5 <= 1
 0 <= y_5_6 <= 1
 0 <= y_5_7 <= 1
 0 <= y_5_8 <= 1
 0 <= y_5_9 <= 1
 0 <= y_6_0 <= 1
 0 <= y_6_1 <= 1
 0 <= y_6_2 <= 1
 0 <= y_6_3 <= 1
 0 <= y_6_4 <= 1
 0 <= y_6_5 <= 1
 0 <= y_6_6 <= 1
 0 <= y_6_7 <= 1
 0 <= y_6_8 <= 1
 0 <= y_6_9 <= 1
 0 <= y_7_0 <= 1
 0 <= y_7_1 <= 1
 0 <= y_7_2 <= 1
 0 <= y_7_3 <= 1
 0 <= y_7_4 <= 1
 0 <= y_7_5 <= 1
 0 <= y_7_6 <= 1
 0 <= y_7_7 <= 1
 0 <= y_7_8 <= 1
 0 <= y_7_9 <= 1
 0 <= y_8_0 <= 1
 0 <= y_8_1 <= 1
 0 <= y_8_2 <= 1
 0 <= y_8_3 <= 1
 0 <= y_8_4 <= 1
 0 <= y_8_5 <= 1
 0 <= y_8_6 <= 1
 0 <= y_8_7 <= 1
 0 <= y_8_8 <= 1
 0 <= y_8_9 <= 1
 0 <= y_9_0 <= 1
 0 <= y_9_1 <= 1
 0 <= y_9_2 <= 1
 0 <= y_9_3 <= 1
 0 <= y_9_4 <= 1
 0 <= y_9_5 <= 1
 0 <= y_9_6 <= 1
 0 <= y_9_7 <= 1
 0 <= y_9_8 <= 1
 0 <= y_9_9 <= 1
Binaries
 y_0_0  y_0_1  y_0_2  y_0_3  y_0_4  y_0_5  y_0_6  y_0_7  y_0_8  y_0_9  y_1_0 
 y_1_1  y_1_2  y_1_3  y_1_4  y_1_5  y_1_6  y_1_7  y_1_8  y_1_9  y_2_0  y_2_1 
 y_2_2  y_2_3  y_2_4  y_2_5  y_2_6  y_2_7  y_2_8  y_2_9  y_3_0  y_3_1  y_3_2 
 y_3_3  y_3_4  y_3_5  y_3_6  y_3_7  y_3_8  y_3_9  y_4_0  y_4_1  y_4_2  y_4_3 
 y_4_4  y_4_5  y_4_6  y_4_7  y_4_8  y_4_9  y_5_0  y_5_1  y_5_2  y_5_3  y_5_4 
 y_5_5  y_5_6  y_5_7  y_5_8  y_5_9  y_6_0  y_6_1  y_6_2  y_6_3  y_6_4  y_6_5 
 y_6_6  y_6_7  y_6_8  y_6_9  y_7_0  y_7_1  y_7_2  y_7_3  y_7_4  y_7_5  y_7_6 
 y_7_7  y_7_8  y_7_9  y_8_0  y_8_1  y_8_2  y_8_3  y_8_4  y_8_5  y_8_6  y_8_7 
 y_8_8  y_8_9  y_9_0  y_9_1  y_9_2  y_9_3  y_9_4  y_9_5  y_9_6  y_9_7  y_9_8 
 y_9_9 
End
